/* Objective function */
max: +t;

/* Constraints */
+0.0725401565432 pi1 +0.114459097385 pi2 +0.0550864115358 pi3 +0.112680651248 pi4 +0.0465474575758 pi5
 -t >= 0;
+0.057590469718 pi1 +0.102350890636 pi2 +0.0541461333632 pi3 +0.0917626172304 pi4 +0.0422692000866 pi5
 -t >= 0;
+0.100634098053 pi1 +0.164086654782 pi2 +0.0698918700219 pi3 +0.208783745766 pi4 +0.0750550404191 pi5
 -t >= 0;
+0.0469873584807 pi1 +0.0915552228689 pi2 +0.0489607751369 pi3 +0.0772594958544 pi4 +0.0437938757241 pi5
 -t >= 0;
+0.111427724361 pi1 +0.192593708634 pi2 +0.0820715874434 pi3 +0.15528640151 pi4 +0.0675459653139 pi5
 -t >= 0;
+pi1 +pi2 +pi3 +pi4 +pi5 = 1;
